30 60
28
5 7 21 53
5 14 19 0
8 14 11 0
8 4 0 35
13 21 0 14
11 7 13 14
11 14 0 0
5 14 22 21
5 4 8 35
3 18 27 0
3 21 24 0
11 17 0 39
11 4 0 56
4 7 26 53
4 5 21 39
7 6 21 47
5 18 13 21
5 3 16 57
3 7 27 35
3 5 27 42
4 18 18 21
4 3 21 44
2 12 25 35
2 6 28 47
5 18 16 39
5 21 11 39
3 17 27 18
3 4 22 35
